 &control
    calculation='scf'
    restart_mode='from_scratch',
    prefix='silicon',
    lelfield=.true.,
    nberrycyc=3
    pseudo_dir='.',
    outdir='out'

 /
 &system
    ibrav= 1, celldm(1)=10.18, nat=  8, ntyp= 1,
    ecutwfc = 20.0
 /
 &electrons
    diagonalization='david',
    conv_thr =  1.0d-8,
    mixing_beta = 0.5,
    startingwfc='random',
    efield_cart(1)=0.d0,efield_cart(2)=0.d0,efield_cart(3)=0.001d0
 /
ATOMIC_SPECIES
 Si  28.086 Si.pbe-rrkj.UPF
ATOMIC_POSITIONS
 Si -0.125 -0.125 -0.125
 Si  0.375  0.375 -0.125
 Si  0.375 -0.125  0.375
 Si -0.125  0.375  0.375
 Si  0.125  0.125  0.125
 Si  0.625  0.625  0.125
 Si  0.625  0.125  0.625
 Si  0.125  0.625  0.625
K_POINTS {automatic}
3 3 7 0 0 0
